p cnf 6 27
3 -5 6 0
-6 3 5 6 0
2 3 -1 0
-6 0
-3 6 0
2 3 -4 -3 0
-6 3 -3 -5 0
5 -5 -3 -2 0
6 0
3 5 6 0
1 2 4 -1 0
1 5 0
4 0
1 -6 4 -1 0
-4 5 -1 -2 0
-6 -2 0
-2 0
1 -6 5 -2 0
2 -2 0
-1 0
-3 6 0
1 -4 -2 0
4 0
5 6 -1 0
4 0
2 0
1 -5 -4 4 0
